(set-logic NRA)
(declare-fun x () Real)
(declare-fun y () Real)
(assert (exists ((z Real)) (and (= (* (+ (- 1) x) x (+ 2 (* x (+ (- 2) (* x (+ 19 x)))))) 0) (= (* x (+ (+ (- 22) (* x (+ 118 (* x (+ (- 127) (* x (- 7))))))) (* z 38))) 0) (=  (+ (* x (+ 32 (* x (+ (- 144) (* x (+ 88 (* x 5))))))) (* y 19)) 0) (=  (+ (* x (+ 32 (* x (+ (- 144) (* x (+ 88 (* x 5))))))) (* z (* z 19))) 0))))
(apply qe)
